NAME: n100q40F.tsp, 100 nodes, semilla 555
COMMENT: Problema aleatorio de norma euclidea
DIMENSION: 100
CAPACITY: 40
EDGE_WEIGHT_TYPE: EUC_2D
NODE_COORD_SECTION
1   0.0000   0.0000
2 -190.0000 352.0000
3 -499.0000 -350.0000
4 -55.0000 313.0000
5 -219.0000 340.0000
6 -193.0000 -388.0000
7 279.0000 -430.0000
8 -47.0000 -281.0000
9 270.0000 -80.0000
10 169.0000 -240.0000
11 -291.0000 -261.0000
12 328.0000 -142.0000
13 117.0000 313.0000
14 -169.0000 -87.0000
15 474.0000 378.0000
16 -238.0000 -472.0000
17  40.0000  71.0000
18 342.0000 -415.0000
19 -414.0000 202.0000
20  13.0000 173.0000
21 -365.0000 175.0000
22 -393.0000 -492.0000
23 360.0000 417.0000
24 -229.0000 -41.0000
25 -282.0000 -25.0000
26 -433.0000 -437.0000
27 416.0000  56.0000
28 244.0000 -447.0000
29 356.0000 157.0000
30 -403.0000 -275.0000
31 223.0000 495.0000
32 -183.0000 -300.0000
33 -58.0000 249.0000
34 -313.0000 177.0000
35 -90.0000  47.0000
36  66.0000 417.0000
37 -426.0000 -369.0000
38 261.0000 -83.0000
39 -452.0000 -26.0000
40 232.0000  72.0000
41 -372.0000 -225.0000
42 244.0000 370.0000
43 -320.0000 -329.0000
44 -196.0000 -68.0000
45 -203.0000 -180.0000
46 380.0000 -51.0000
47 -270.0000 -296.0000
48 -354.0000 -35.0000
49 383.0000 -208.0000
50 419.0000 256.0000
51 491.0000 -422.0000
52 -225.0000 348.0000
53 230.0000 -258.0000
54 -72.0000 -97.0000
55  25.0000  44.0000
56 376.0000 163.0000
57 -254.0000 -306.0000
58 441.0000 -93.0000
59 -260.0000 -409.0000
60 -464.0000 -141.0000
61 487.0000 301.0000
62 389.0000 -366.0000
63 -212.0000 -197.0000
64 -238.0000 -93.0000
65 139.0000 -342.0000
66 -326.0000 -315.0000
67  96.0000 -118.0000
68  61.0000 -72.0000
69 300.0000  83.0000
70 -135.0000 -199.0000
71 424.0000 424.0000
72 418.0000 -240.0000
73 -121.0000  46.0000
74 189.0000 -361.0000
75 -180.0000 217.0000
76 -319.0000 -147.0000
77 -462.0000 -16.0000
78 -376.0000 100.0000
79 -365.0000 -478.0000
80 -219.0000 464.0000
81 -413.0000 -110.0000
82 -154.0000  66.0000
83 173.0000 -97.0000
84 -357.0000 -301.0000
85 -154.0000 -458.0000
86  47.0000 -315.0000
87 361.0000 308.0000
88 447.0000 -26.0000
89 203.0000 294.0000
90 241.0000 302.0000
91 128.0000 108.0000
92 279.0000  19.0000
93 429.0000  30.0000
94 340.0000 403.0000
95 496.0000 -483.0000
96 494.0000 -77.0000
97 165.0000 301.0000
98 116.0000 -35.0000
99 154.0000 353.0000
100 -278.0000 327.0000
DISPLAY_DATA_SECTION:
 1  250  250
 2  155  426
 3    0   75
 4  222  406
 5  140  420
 6  153   56
 7  389   35
 8  226  109
 9  385  210
10  334  130
11  104  119
12  414  179
13  308  406
14  165  206
15  487  439
16  131   14
17  270  285
18  421   42
19   43  351
20  256  336
21   67  337
22   53    4
23  430  458
24  135  229
25  109  237
26   33   31
27  458  278
28  372   26
29  428  328
30   48  112
31  361  497
32  158  100
33  221  374
34   93  338
35  205  273
36  283  458
37   37   65
38  380  208
39   24  237
40  366  286
41   64  137
42  372  435
43   90   85
44  152  216
45  148  160
46  440  224
47  115  102
48   73  232
49  441  146
50  459  378
51  495   39
52  137  424
53  365  121
54  214  201
55  262  272
56  438  331
57  123   97
58  470  203
59  120   45
60   18  179
61  493  400
62  444   67
63  144  151
64  131  203
65  319   79
66   87   92
67  298  191
68  280  214
69  400  291
70  182  150
71  462  462
72  459  130
73  189  273
74  344   69
75  160  358
76   90  176
77   19  242
78   62  300
79   67   11
80  140  482
81   43  195
82  173  283
83  336  201
84   71   99
85  173   21
86  273   92
87  430  404
88  473  237
89  351  397
90  370  401
91  314  304
92  389  259
93  464  265
94  420  451
95  498    8
96  497  211
97  332  400
98  308  232
99  327  426
100  111  413
DEMAND_SECTION
1 -6
2 -2
3 4
4 1
5 4
6 8
7 2
8 -3
9 -5
10 8
11 -8
12 7
13 -5
14 -5
15 5
16 -1
17 5
18 3
19 4
20 3
21 9
22 -8
23 0
24 0
25 0
26 5
27 -3
28 -2
29 -3
30 -2
31 -2
32 -3
33 3
34 -5
35 -10
36 -5
37 5
38 4
39 2
40 9
41 -1
42 0
43 -1
44 8
45 4
46 4
47 4
48 -4
49 3
50 -1
51 -2
52 0
53 -8
54 -9
55 9
56 -1
57 8
58 8
59 -5
60 -4
61 2
62 -9
63 1
64 -2
65 1
66 -4
67 -5
68 8
69 2
70 -1
71 -5
72 3
73 8
74 -7
75 7
76 7
77 -6
78 -7
79 -7
80 -9
81 -10
82 -9
83 3
84 -4
85 0
86 3
87 7
88 -5
89 0
90 8
91 -8
92 -1
93 -1
94 5
95 -9
96 4
97 6
98 8
99 -1
100 2
EOF